/* Objective function */
min: 3 x1 + 3 x2 + 3 x3 + 4 x4 + 2 x5 + 12 x6 + 3 x7 + 6 x8 + 2 x9 + 2 x10 + 4 x11 + 3 x12 + 4 x13 + 2 x14 + 5 x15 + 3 x16 + 4 x17 + 2 x18 + 10 x19 + 4 x20 + 4 x21;

/* Variable bounds */
/*V0*/  x19 - x1  = 0;
/*V1*/  x1 - x2 - x3 = 0;
/*V2*/  x2 + x11 - x4 = 0;
/*V3*/  x4 - x5 - x6 = 0;
/*V4*/  x5 + x15 - x7 = 0;
/*V5*/  x3 + x9 - x8 = 0;
/*V6*/  x17 - x9 - x10 = 0;
/*V7*/  x10 - x11 - x12 - x13 = 0;
/*V8*/  x7 + x12 - x14 = 0;
/*V9*/  x14 - x15 - x16 = 0;
/*V10*/ x8 - x17 - x18 = 0;
/*V11*/ x18 + x20 - x19 = 0;
/*V12*/ x13 + x21 - x20 = 0;
/*V13*/ x6 + x16 - x21 = 0;

x1  >= 1;
x2  >= 1;
x3  >= 1;
x4  >= 1;
x5  >= 1;
x6  >= 1;
x7  >= 1;
x8  >= 1;
x9  >= 1;
x10 >= 1;
x11 >= 1;
x12 >= 1;
x13 >= 1;
x14 >= 1;
x15 >= 1;
x16 >= 1;
x17 >= 1;
x18 >= 1;
x19 >= 1;
x20 >= 1;
x21 >= 1;

int x1, x2, x3, x4, x5, x6, x7, x8, x9, x10, x11, x12, x13, x14, x15, x16, x17, x18, x19, x20, x21;